DIMACS_lns/graph-1000-166.col
p edge 1000 1798
e 1 972
e 1 879
e 1 845
e 1 827
e 1 179
e 1 388
e 1 265
e 3 491
e 3 180
e 3 718
e 3 767
e 3 723
e 3 71
e 3 562
e 4 184
e 4 827
e 4 745
e 4 412
e 4 113
e 5 725
e 5 887
e 5 432
e 7 707
e 7 427
e 7 81
e 8 519
e 8 14
e 8 390
e 8 837
e 9 467
e 9 725
e 9 684
e 9 424
e 10 305
e 10 181
e 10 575
e 10 52
e 10 341
e 12 791
e 12 418
e 12 144
e 12 975
e 13 359
e 13 840
e 13 646
e 14 990
e 14 641
e 14 157
e 14 26
e 14 960
e 16 635
e 16 581
e 16 120
e 16 986
e 19 778
e 19 137
e 19 315
e 21 154
e 21 184
e 21 54
e 21 514
e 21 60
e 21 697
e 22 783
e 22 968
e 22 688
e 23 499
e 23 725
e 23 174
e 23 760
e 23 666
e 24 629
e 24 508
e 24 589
e 24 610
e 24 246
e 24 81
e 24 557
e 24 31
e 25 944
e 25 683
e 25 158
e 25 631
e 25 897
e 25 222
e 25 407
e 25 437
e 25 824
e 26 682
e 26 841
e 26 39
e 27 628
e 27 275
e 27 211
e 27 472
e 28 533
e 28 342
e 28 951
e 28 410
e 28 522
e 28 188
e 29 45
e 29 533
e 29 127
e 29 946
e 29 179
e 30 321
e 30 505
e 30 487
e 31 162
e 31 138
e 31 80
e 31 637
e 31 291
e 32 380
e 32 638
e 32 327
e 32 767
e 32 816
e 32 603
e 32 326
e 33 460
e 33 790
e 33 599
e 33 559
e 34 878
e 34 247
e 34 564
e 34 722
e 35 652
e 35 527
e 35 105
e 35 109
e 37 557
e 37 578
e 37 650
e 38 515
e 38 826
e 38 305
e 38 244
e 38 536
e 38 636
e 39 68
e 39 688
e 39 304
e 39 812
e 39 129
e 39 768
e 39 182
e 40 474
e 40 706
e 40 842
e 41 253
e 41 139
e 41 900
e 41 466
e 41 471
e 41 265
e 41 876
e 41 528
e 42 733
e 42 579
e 42 267
e 43 437
e 43 497
e 43 704
e 43 441
e 43 992
e 45 400
e 45 767
e 45 670
e 46 842
e 46 244
e 46 452
e 48 804
e 48 280
e 48 374
e 49 737
e 49 803
e 49 114
e 50 805
e 50 133
e 50 466
e 50 523
e 52 934
e 52 688
e 52 624
e 52 406
e 52 940
e 52 403
e 53 182
e 53 954
e 53 451
e 53 831
e 53 448
e 54 876
e 54 879
e 54 668
e 54 789
e 55 770
e 55 259
e 55 762
e 55 234
e 55 140
e 55 619
e 56 112
e 56 201
e 56 327
e 56 284
e 56 299
e 59 829
e 59 296
e 59 630
e 59 672
e 60 452
e 60 506
e 60 576
e 61 684
e 61 655
e 61 499
e 61 586
e 61 968
e 62 981
e 62 67
e 62 160
e 63 806
e 63 204
e 63 717
e 63 561
e 63 966
e 63 580
e 63 957
e 64 441
e 64 962
e 64 523
e 64 296
e 64 655
e 66 290
e 66 369
e 66 630
e 67 705
e 67 71
e 67 333
e 67 504
e 68 705
e 68 263
e 68 556
e 68 953
e 68 851
e 68 123
e 68 949
e 70 898
e 70 618
e 70 81
e 71 361
e 71 910
e 72 974
e 72 550
e 72 469
e 72 507
e 72 724
e 73 560
e 73 955
e 73 568
e 73 766
e 73 567
e 75 733
e 75 851
e 75 397
e 76 234
e 76 800
e 76 242
e 76 719
e 76 504
e 80 273
e 80 984
e 80 212
e 80 334
e 80 960
e 81 485
e 81 745
e 81 946
e 81 486
e 81 892
e 82 458
e 82 152
e 82 296
e 88 944
e 88 261
e 88 564
e 88 272
e 88 124
e 90 127
e 90 317
e 90 294
e 90 496
e 90 534
e 91 133
e 91 334
e 91 465
e 92 934
e 92 995
e 92 442
e 92 893
e 92 683
e 94 364
e 94 612
e 94 196
e 94 613
e 94 715
e 94 181
e 96 566
e 96 855
e 96 702
e 97 218
e 97 642
e 97 375
e 97 356
e 97 246
e 97 114
e 98 588
e 98 280
e 98 776
e 100 201
e 100 686
e 100 738
e 101 448
e 101 865
e 101 356
e 101 347
e 101 427
e 102 581
e 102 419
e 102 672
e 102 220
e 102 558
e 103 715
e 103 487
e 103 331
e 103 348
e 103 234
e 104 286
e 104 924
e 104 273
e 105 730
e 105 995
e 106 600
e 106 979
e 106 1000
e 106 390
e 107 829
e 107 442
e 107 747
e 107 947
e 107 554
e 108 928
e 108 182
e 108 519
e 109 721
e 109 441
e 110 223
e 110 166
e 110 227
e 110 638
e 110 133
e 110 765
e 112 612
e 112 494
e 112 323
e 112 961
e 113 295
e 113 405
e 113 220
e 114 455
e 114 517
e 114 493
e 114 838
e 115 207
e 115 755
e 115 169
e 115 675
e 115 508
e 116 1000
e 116 564
e 116 142
e 116 152
e 117 601
e 117 634
e 117 587
e 117 979
e 117 855
e 117 736
e 118 203
e 118 561
e 118 237
e 118 707
e 118 234
e 120 475
e 120 267
e 120 295
e 120 129
e 121 344
e 121 788
e 121 138
e 121 996
e 121 776
e 121 725
e 121 328
e 121 469
e 123 316
e 123 252
e 123 522
e 123 789
e 123 366
e 123 174
e 124 267
e 124 262
e 127 914
e 127 999
e 128 441
e 128 686
e 128 190
e 128 804
e 128 751
e 128 656
e 129 677
e 129 488
e 129 468
e 129 169
e 129 570
e 129 212
e 130 469
e 130 243
e 130 660
e 130 509
e 130 740
e 130 248
e 131 797
e 131 558
e 131 514
e 131 942
e 132 637
e 132 139
e 132 151
e 133 486
e 133 506
e 134 879
e 134 440
e 134 635
e 136 528
e 136 527
e 136 827
e 136 802
e 137 946
e 137 675
e 137 205
e 137 721
e 138 556
e 138 607
e 139 747
e 139 259
e 139 626
e 140 608
e 140 184
e 140 589
e 140 896
e 140 722
e 141 560
e 141 377
e 141 956
e 141 992
e 141 441
e 142 180
e 142 152
e 142 661
e 142 863
e 142 617
e 144 684
e 144 347
e 144 619
e 144 960
e 147 620
e 147 578
e 147 725
e 148 772
e 148 613
e 148 795
e 148 999
e 148 200
e 148 455
e 148 356
e 148 839
e 149 250
e 149 235
e 149 275
e 149 488
e 149 428
e 149 653
e 151 857
e 151 525
e 151 627
e 151 938
e 151 383
e 151 382
e 152 729
e 152 720
e 153 203
e 153 237
e 153 246
e 154 972
e 154 422
e 157 716
e 157 331
e 157 176
e 157 705
e 157 768
e 158 302
e 158 894
e 159 895
e 159 484
e 159 515
e 160 412
e 160 786
e 160 911
e 160 474
e 160 661
e 162 967
e 162 273
e 162 989
e 163 879
e 163 686
e 163 262
e 164 821
e 164 192
e 164 658
e 164 657
e 165 975
e 165 469
e 165 940
e 165 748
e 165 437
e 165 845
e 166 639
e 166 515
e 166 634
e 166 974
e 169 613
e 169 945
e 170 930
e 170 819
e 170 317
e 172 333
e 172 184
e 172 526
e 172 347
e 173 606
e 173 776
e 173 222
e 173 494
e 173 717
e 173 724
e 174 419
e 174 828
e 174 385
e 174 683
e 174 613
e 175 783
e 175 957
e 175 463
e 175 422
e 175 949
e 176 665
e 176 248
e 177 801
e 177 504
e 177 696
e 178 640
e 178 800
e 178 282
e 178 210
e 179 696
e 179 432
e 179 677
e 179 248
e 179 974
e 179 919
e 179 444
e 179 580
e 179 374
e 180 682
e 180 658
e 180 755
e 180 783
e 180 336
e 181 829
e 181 716
e 181 205
e 182 708
e 182 629
e 182 788
e 182 647
e 182 589
e 182 774
e 184 458
e 184 327
e 184 296
e 184 374
e 184 732
e 187 400
e 187 409
e 187 909
e 187 550
e 187 638
e 187 957
e 187 584
e 188 330
e 188 375
e 189 727
e 189 412
e 189 581
e 189 540
e 189 236
e 189 873
e 190 563
e 190 755
e 190 328
e 190 449
e 190 332
e 190 336
e 190 960
e 192 451
e 192 219
e 192 361
e 192 483
e 192 495
e 192 752
e 192 473
e 193 277
e 193 773
e 193 245
e 193 401
e 193 872
e 194 634
e 194 412
e 194 235
e 194 996
e 196 503
e 196 673
e 196 576
e 198 712
e 198 991
e 198 961
e 198 221
e 199 843
e 199 924
e 199 774
e 200 721
e 200 558
e 200 879
e 201 778
e 201 494
e 203 332
e 203 358
e 203 368
e 204 284
e 204 915
e 204 894
e 205 681
e 207 971
e 207 733
e 208 958
e 208 830
e 208 566
e 208 475
e 209 347
e 209 902
e 209 914
e 209 478
e 209 482
e 209 564
e 209 370
e 210 409
e 210 890
e 211 995
e 211 406
e 211 435
e 211 234
e 212 270
e 212 806
e 212 668
e 212 471
e 212 759
e 212 424
e 213 958
e 213 223
e 213 972
e 217 921
e 217 870
e 217 584
e 217 655
e 218 307
e 218 372
e 218 625
e 218 665
e 218 910
e 218 573
e 219 645
e 219 345
e 219 704
e 219 237
e 220 893
e 220 719
e 220 471
e 220 838
e 221 377
e 221 453
e 221 649
e 222 692
e 223 410
e 223 449
e 223 644
e 223 655
e 225 756
e 225 952
e 225 640
e 226 828
e 226 599
e 226 704
e 226 610
e 227 390
e 227 485
e 227 529
e 227 992
e 228 432
e 228 362
e 228 988
e 228 887
e 228 836
e 229 687
e 229 703
e 229 632
e 229 778
e 234 843
e 234 356
e 235 893
e 235 656
e 236 997
e 236 726
e 236 482
e 236 664
e 237 504
e 241 321
e 241 472
e 241 477
e 241 247
e 242 249
e 242 358
e 243 467
e 243 507
e 243 989
e 243 580
e 243 358
e 243 493
e 243 660
e 244 732
e 245 991
e 245 898
e 246 641
e 247 833
e 247 377
e 248 330
e 248 476
e 249 629
e 249 584
e 249 692
e 249 647
e 249 637
e 249 802
e 250 523
e 250 286
e 252 596
e 252 426
e 253 638
e 253 702
e 253 801
e 256 940
e 256 984
e 256 351
e 256 678
e 257 893
e 257 347
e 257 534
e 259 470
e 261 573
e 261 436
e 261 491
e 261 874
e 262 507
e 262 863
e 262 319
e 263 504
e 263 565
e 263 766
e 263 770
e 263 745
e 265 809
e 265 622
e 265 840
e 266 419
e 266 505
e 266 452
e 267 695
e 267 938
e 267 719
e 267 987
e 267 784
e 267 930
e 267 462
e 267 774
e 269 570
e 269 292
e 269 790
e 269 696
e 270 533
e 270 661
e 270 890
e 270 916
e 270 636
e 272 375
e 272 390
e 272 686
e 273 662
e 273 654
e 275 862
e 275 771
e 276 838
e 276 463
e 276 902
e 276 405
e 277 845
e 277 975
e 280 755
e 280 550
e 281 366
e 281 800
e 281 615
e 282 411
e 282 844
e 282 493
e 284 599
e 284 485
e 284 309
e 284 628
e 286 632
e 286 513
e 286 290
e 286 601
e 290 902
e 290 420
e 290 558
e 290 868
e 290 618
e 290 561
e 291 892
e 291 380
e 292 522
e 292 496
e 292 720
e 292 752
e 294 868
e 294 379
e 294 984
e 295 927
e 295 480
e 295 684
e 295 816
e 296 715
e 296 402
e 296 784
e 296 906
e 297 836
e 297 411
e 297 506
e 299 610
e 299 418
e 299 351
e 299 437
e 300 755
e 300 323
e 300 351
e 301 990
e 301 749
e 301 876
e 301 959
e 302 966
e 302 614
e 304 700
e 304 598
e 304 464
e 304 630
e 304 883
e 305 575
e 305 834
e 305 686
e 305 732
e 305 950
e 307 533
e 307 680
e 307 892
e 307 501
e 309 568
e 309 564
e 309 438
e 309 621
e 315 748
e 315 503
e 315 318
e 315 438
e 315 322
e 315 752
e 315 799
e 315 924
e 315 843
e 316 561
e 316 332
e 317 473
e 317 692
e 317 851
e 317 421
e 317 987
e 317 550
e 318 450
e 318 652
e 318 730
e 318 608
e 319 824
e 319 714
e 319 748
e 320 619
e 320 675
e 320 410
e 320 862
e 321 835
e 322 678
e 322 478
e 322 513
e 322 349
e 322 950
e 323 550
e 323 380
e 323 719
e 323 721
e 326 538
e 326 624
e 326 786
e 327 870
e 327 767
e 328 932
e 328 761
e 330 841
e 330 582
e 330 949
e 331 944
e 331 469
e 331 397
e 331 858
e 332 705
e 332 730
e 332 872
e 332 863
e 333 463
e 333 765
e 334 493
e 334 387
e 334 536
e 334 692
e 336 444
e 336 338
e 338 558
e 338 347
e 338 752
e 338 381
e 340 999
e 340 985
e 340 925
e 341 675
e 341 567
e 342 731
e 342 524
e 344 887
e 344 567
e 345 870
e 345 589
e 347 378
e 348 589
e 348 363
e 349 575
e 349 809
e 349 529
e 351 567
e 351 587
e 351 511
e 351 529
e 351 783
e 352 640
e 352 967
e 352 437
e 352 380
e 352 557
e 352 898
e 354 503
e 354 924
e 354 372
e 356 482
e 356 727
e 356 828
e 356 652
e 358 628
e 359 628
e 359 759
e 361 521
e 361 928
e 361 640
e 361 834
e 361 870
e 362 370
e 362 505
e 362 476
e 362 621
e 362 380
e 362 724
e 362 929
e 363 909
e 363 719
e 363 963
e 364 951
e 364 966
e 364 379
e 366 653
e 366 384
e 367 376
e 367 643
e 367 585
e 367 840
e 368 942
e 368 984
e 369 738
e 369 770
e 370 757
e 372 614
e 372 616
e 372 945
e 374 540
e 375 559
e 375 950
e 375 917
e 375 671
e 375 487
e 375 968
e 375 503
e 375 986
e 376 416
e 376 887
e 376 409
e 377 532
e 377 844
e 377 974
e 378 779
e 378 944
e 378 458
e 378 956
e 379 742
e 381 737
e 381 556
e 382 855
e 382 418
e 382 878
e 382 986
e 383 983
e 383 566
e 384 917
e 384 843
e 384 972
e 385 692
e 385 756
e 385 739
e 387 996
e 387 411
e 387 614
e 388 878
e 388 827
e 388 426
e 388 519
e 388 634
e 388 916
e 388 780
e 388 764
e 390 596
e 391 858
e 391 971
e 391 511
e 392 613
e 392 598
e 392 968
e 392 971
e 392 702
e 393 796
e 393 868
e 393 499
e 396 843
e 396 773
e 396 565
e 396 779
e 396 904
e 396 862
e 396 718
e 397 822
e 397 885
e 397 475
e 400 799
e 400 627
e 400 576
e 400 532
e 400 715
e 401 732
e 401 879
e 401 515
e 401 960
e 401 507
e 402 618
e 402 902
e 403 927
e 403 636
e 405 784
e 405 747
e 406 455
e 407 817
e 407 771
e 407 944
e 408 714
e 408 930
e 408 480
e 409 971
e 409 436
e 409 700
e 409 881
e 409 973
e 409 418
e 410 601
e 410 841
e 410 748
e 410 685
e 410 497
e 411 718
e 411 957
e 412 754
e 412 672
e 415 665
e 415 636
e 415 690
e 416 897
e 416 716
e 418 772
e 419 608
e 419 618
e 420 840
e 420 916
e 421 820
e 421 822
e 421 809
e 422 460
e 422 978
e 422 427
e 423 607
e 423 668
e 423 562
e 423 772
e 424 778
e 424 670
e 426 904
e 426 586
e 427 450
e 427 544
e 428 734
e 428 980
e 432 831
e 432 896
e 433 821
e 433 455
e 433 716
e 435 732
e 435 726
e 436 705
e 436 523
e 436 766
e 437 734
e 437 883
e 438 440
e 438 528
e 440 640
e 440 534
e 441 484
e 442 515
e 444 529
e 444 634
e 444 737
e 444 773
e 448 544
e 448 653
e 448 909
e 449 825
e 449 820
e 450 870
e 450 582
e 451 729
e 451 988
e 453 828
e 453 928
e 453 800
e 453 771
e 455 938
e 455 688
e 458 532
e 458 889
e 458 495
e 459 927
e 459 942
e 459 678
e 459 749
e 460 824
e 460 508
e 462 573
e 462 720
e 462 955
e 462 929
e 463 675
e 463 772
e 463 617
e 464 809
e 464 786
e 464 588
e 464 780
e 465 994
e 465 819
e 466 691
e 466 567
e 466 876
e 466 754
e 466 660
e 467 482
e 467 643
e 467 872
e 468 673
e 468 767
e 469 722
e 470 824
e 470 931
e 470 938
e 471 497
e 471 751
e 471 603
e 471 565
e 472 700
e 472 857
e 472 988
e 473 627
e 473 716
e 473 646
e 474 996
e 474 876
e 474 642
e 474 982
e 474 586
e 475 623
e 476 812
e 477 831
e 477 493
e 478 990
e 478 723
e 478 703
e 478 949
e 480 906
e 480 644
e 480 718
e 480 672
e 482 747
e 482 624
e 482 868
e 483 683
e 483 615
e 484 929
e 484 843
e 484 577
e 484 567
e 484 617
e 485 790
e 485 656
e 486 999
e 486 532
e 486 985
e 486 624
e 486 628
e 486 829
e 487 981
e 487 514
e 487 847
e 488 993
e 488 955
e 490 498
e 490 858
e 490 911
e 491 598
e 491 952
e 491 754
e 493 978
e 495 517
e 495 968
e 496 622
e 496 653
e 497 801
e 497 890
e 497 574
e 497 703
e 497 994
e 498 956
e 498 1000
e 498 657
e 499 649
e 501 765
e 501 534
e 501 564
e 503 992
e 503 991
e 503 771
e 504 652
e 504 948
e 504 599
e 505 611
e 505 727
e 505 696
e 506 637
e 506 822
e 506 697
e 506 601
e 507 680
e 507 868
e 508 878
e 508 839
e 509 963
e 509 759
e 511 963
e 511 631
e 511 527
e 513 878
e 514 610
e 514 863
e 514 522
e 514 690
e 515 654
e 517 820
e 517 623
e 518 688
e 518 997
e 518 727
e 518 821
e 518 897
e 518 527
e 518 935
e 519 804
e 519 847
e 519 721
e 521 534
e 521 749
e 522 953
e 522 762
e 522 973
e 523 865
e 524 578
e 524 865
e 524 712
e 525 611
e 525 598
e 525 770
e 525 976
e 525 678
e 526 902
e 526 947
e 528 558
e 528 983
e 528 688
e 529 863
e 529 534
e 529 879
e 532 831
e 532 965
e 533 878
e 533 614
e 534 872
e 534 917
e 536 962
e 538 962
e 538 914
e 539 906
e 539 581
e 539 567
e 540 969
e 541 784
e 541 949
e 541 586
e 541 694
e 544 578
e 544 663
e 546 691
e 546 588
e 546 703
e 546 829
e 550 662
e 550 935
e 554 988
e 554 727
e 554 895
e 556 712
e 557 978
e 558 773
e 558 612
e 558 823
e 559 978
e 559 739
e 559 896
e 559 815
e 560 838
e 560 664
e 560 977
e 561 958
e 561 702
e 561 573
e 562 579
e 563 661
e 563 925
e 564 656
e 564 589
e 564 819
e 564 677
e 565 580
e 568 919
e 568 748
e 570 635
e 572 754
e 572 760
e 572 634
e 574 993
e 574 675
e 575 637
e 575 801
e 575 655
e 576 623
e 577 815
e 577 931
e 578 734
e 578 906
e 578 961
e 578 641
e 579 751
e 580 910
e 580 666
e 581 959
e 582 875
e 585 695
e 585 833
e 586 642
e 587 979
e 587 613
e 587 801
e 587 949
e 588 621
e 589 927
e 589 751
e 589 836
e 596 678
e 596 945
e 598 872
e 599 963
e 600 749
e 600 740
e 601 617
e 603 664
e 606 928
e 606 630
e 607 959
e 607 683
e 608 996
e 609 844
e 609 724
e 609 621
e 610 645
e 611 855
e 612 930
e 613 757
e 613 915
e 613 983
e 614 988
e 615 717
e 616 929
e 616 875
e 617 705
e 617 640
e 617 830
e 617 793
e 618 622
e 618 770
e 618 637
e 620 704
e 620 716
e 621 641
e 622 705
e 623 985
e 624 898
e 624 841
e 624 643
e 624 815
e 625 697
e 625 748
e 626 793
e 626 672
e 627 686
e 627 723
e 628 993
e 628 654
e 629 883
e 629 702
e 629 974
e 630 835
e 631 806
e 632 812
e 634 887
e 634 871
e 636 738
e 637 699
e 637 688
e 637 712
e 639 678
e 639 717
e 639 803
e 639 855
e 640 851
e 640 970
e 642 711
e 642 748
e 642 759
e 643 827
e 643 910
e 643 699
e 644 712
e 645 796
e 645 771
e 646 960
e 647 971
e 647 770
e 648 893
e 648 662
e 648 805
e 648 896
e 648 695
e 649 916
e 650 681
e 650 749
e 652 910
e 653 766
e 653 899
e 656 911
e 656 803
e 657 906
e 657 870
e 658 982
e 658 897
e 660 700
e 660 837
e 662 690
e 662 823
e 663 731
e 663 817
e 664 857
e 665 812
e 665 774
e 666 914
e 666 940
e 668 994
e 668 838
e 670 690
e 670 706
e 671 718
e 671 921
e 672 761
e 673 711
e 673 767
e 677 894
e 677 826
e 678 774
e 678 970
e 678 955
e 680 966
e 680 977
e 681 732
e 681 829
e 682 985
e 682 790
e 684 805
e 684 955
e 684 699
e 685 932
e 685 836
e 685 732
e 685 768
e 686 955
e 687 822
e 687 831
e 687 881
e 687 965
e 687 742
e 688 730
e 688 894
e 688 692
e 690 820
e 691 898
e 692 705
e 692 789
e 692 799
e 694 900
e 694 889
e 695 974
e 695 797
e 695 706
e 700 826
e 703 980
e 703 793
e 704 736
e 704 749
e 705 873
e 705 895
e 706 997
e 707 906
e 707 972
e 708 904
e 708 757
e 708 999
e 708 913
e 708 768
e 711 1000
e 711 994
e 712 738
e 712 870
e 714 797
e 714 835
e 714 795
e 714 842
e 715 745
e 715 839
e 715 976
e 716 931
e 717 720
e 717 863
e 717 842
e 717 800
e 718 896
e 719 970
e 722 834
e 724 759
e 724 802
e 724 825
e 725 847
e 726 969
e 726 858
e 727 944
e 729 747
e 730 979
e 731 817
e 732 740
e 733 795
e 733 953
e 736 819
e 739 983
e 739 984
e 739 786
e 739 838
e 740 982
e 742 913
e 742 833
e 747 940
e 752 917
e 756 820
e 759 956
e 759 819
e 760 944
e 760 914
e 760 779
e 761 887
e 762 879
e 764 837
e 764 797
e 765 874
e 767 900
e 767 990
e 767 944
e 768 892
e 768 960
e 768 836
e 770 881
e 773 951
e 773 930
e 773 871
e 774 789
e 778 930
e 778 823
e 778 871
e 778 900
e 779 913
e 780 954
e 780 887
e 780 983
e 788 800
e 789 826
e 790 875
e 791 915
e 791 890
e 791 924
e 795 992
e 796 858
e 801 885
e 803 946
e 804 969
e 804 839
e 812 948
e 812 988
e 815 817
e 815 954
e 816 972
e 817 946
e 820 847
e 821 951
e 823 827
e 824 906
e 825 990
e 826 971
e 826 919
e 830 878
e 831 991
e 834 883
e 834 952
e 834 973
e 834 899
e 838 843
e 839 973
e 839 899
e 839 982
e 840 948
e 841 865
e 841 885
e 843 916
e 844 948
e 847 906
e 855 914
e 855 944
e 857 942
e 857 914
e 863 981
e 868 980
e 873 942
e 874 947
e 878 985
e 881 999
e 883 893
e 885 932
e 885 913
e 887 945
e 887 909
e 889 987
e 890 906
e 892 967
e 897 981
e 898 976
e 899 947
e 904 996
e 906 981
e 913 921
e 916 934
e 925 985
e 935 971
e 942 974
e 942 985
e 946 990
e 949 994
e 950 980
e 951 970
e 956 959
e 960 993
e 965 994
e 977 989
e 985 995
