txt_Ins/graph-1000-166.txt
n 1000
e 0 971
e 0 878
e 0 844
e 0 826
e 0 178
e 0 387
e 0 264
e 2 490
e 2 179
e 2 717
e 2 766
e 2 722
e 2 70
e 2 561
e 3 183
e 3 826
e 3 744
e 3 411
e 3 112
e 4 724
e 4 886
e 4 431
e 6 706
e 6 426
e 6 80
e 7 518
e 7 13
e 7 389
e 7 836
e 8 466
e 8 724
e 8 683
e 8 423
e 9 304
e 9 180
e 9 574
e 9 51
e 9 340
e 11 790
e 11 417
e 11 143
e 11 974
e 12 358
e 12 839
e 12 645
e 13 989
e 13 640
e 13 156
e 13 25
e 13 959
e 15 634
e 15 580
e 15 119
e 15 985
e 18 777
e 18 136
e 18 314
e 20 153
e 20 183
e 20 53
e 20 513
e 20 59
e 20 696
e 21 782
e 21 967
e 21 687
e 22 498
e 22 724
e 22 173
e 22 759
e 22 665
e 23 628
e 23 507
e 23 588
e 23 609
e 23 245
e 23 80
e 23 556
e 23 30
e 24 943
e 24 682
e 24 157
e 24 630
e 24 896
e 24 221
e 24 406
e 24 436
e 24 823
e 25 681
e 25 840
e 25 38
e 26 627
e 26 274
e 26 210
e 26 471
e 27 532
e 27 341
e 27 950
e 27 409
e 27 521
e 27 187
e 28 44
e 28 532
e 28 126
e 28 945
e 28 178
e 29 320
e 29 504
e 29 486
e 30 161
e 30 137
e 30 79
e 30 636
e 30 290
e 31 379
e 31 637
e 31 326
e 31 766
e 31 815
e 31 602
e 31 325
e 32 459
e 32 789
e 32 598
e 32 558
e 33 877
e 33 246
e 33 563
e 33 721
e 34 651
e 34 526
e 34 104
e 34 108
e 36 556
e 36 577
e 36 649
e 37 514
e 37 825
e 37 304
e 37 243
e 37 535
e 37 635
e 38 67
e 38 687
e 38 303
e 38 811
e 38 128
e 38 767
e 38 181
e 39 473
e 39 705
e 39 841
e 40 252
e 40 138
e 40 899
e 40 465
e 40 470
e 40 264
e 40 875
e 40 527
e 41 732
e 41 578
e 41 266
e 42 436
e 42 496
e 42 703
e 42 440
e 42 991
e 44 399
e 44 766
e 44 669
e 45 841
e 45 243
e 45 451
e 47 803
e 47 279
e 47 373
e 48 736
e 48 802
e 48 113
e 49 804
e 49 132
e 49 465
e 49 522
e 51 933
e 51 687
e 51 623
e 51 405
e 51 939
e 51 402
e 52 181
e 52 953
e 52 450
e 52 830
e 52 447
e 53 875
e 53 878
e 53 667
e 53 788
e 54 769
e 54 258
e 54 761
e 54 233
e 54 139
e 54 618
e 55 111
e 55 200
e 55 326
e 55 283
e 55 298
e 58 828
e 58 295
e 58 629
e 58 671
e 59 451
e 59 505
e 59 575
e 60 683
e 60 654
e 60 498
e 60 585
e 60 967
e 61 980
e 61 66
e 61 159
e 62 805
e 62 203
e 62 716
e 62 560
e 62 965
e 62 579
e 62 956
e 63 440
e 63 961
e 63 522
e 63 295
e 63 654
e 65 289
e 65 368
e 65 629
e 66 704
e 66 70
e 66 332
e 66 503
e 67 704
e 67 262
e 67 555
e 67 952
e 67 850
e 67 122
e 67 948
e 69 897
e 69 617
e 69 80
e 70 360
e 70 909
e 71 973
e 71 549
e 71 468
e 71 506
e 71 723
e 72 559
e 72 954
e 72 567
e 72 765
e 72 566
e 74 732
e 74 850
e 74 396
e 75 233
e 75 799
e 75 241
e 75 718
e 75 503
e 79 272
e 79 983
e 79 211
e 79 333
e 79 959
e 80 484
e 80 744
e 80 945
e 80 485
e 80 891
e 81 457
e 81 151
e 81 295
e 87 943
e 87 260
e 87 563
e 87 271
e 87 123
e 89 126
e 89 316
e 89 293
e 89 495
e 89 533
e 90 132
e 90 333
e 90 464
e 91 933
e 91 994
e 91 441
e 91 892
e 91 682
e 93 363
e 93 611
e 93 195
e 93 612
e 93 714
e 93 180
e 95 565
e 95 854
e 95 701
e 96 217
e 96 641
e 96 374
e 96 355
e 96 245
e 96 113
e 97 587
e 97 279
e 97 775
e 99 200
e 99 685
e 99 737
e 100 447
e 100 864
e 100 355
e 100 346
e 100 426
e 101 580
e 101 418
e 101 671
e 101 219
e 101 557
e 102 714
e 102 486
e 102 330
e 102 347
e 102 233
e 103 285
e 103 923
e 103 272
e 104 729
e 104 994
e 105 599
e 105 978
e 105 999
e 105 389
e 106 828
e 106 441
e 106 746
e 106 946
e 106 553
e 107 927
e 107 181
e 107 518
e 108 720
e 108 440
e 109 222
e 109 165
e 109 226
e 109 637
e 109 132
e 109 764
e 111 611
e 111 493
e 111 322
e 111 960
e 112 294
e 112 404
e 112 219
e 113 454
e 113 516
e 113 492
e 113 837
e 114 206
e 114 754
e 114 168
e 114 674
e 114 507
e 115 999
e 115 563
e 115 141
e 115 151
e 116 600
e 116 633
e 116 586
e 116 978
e 116 854
e 116 735
e 117 202
e 117 560
e 117 236
e 117 706
e 117 233
e 119 474
e 119 266
e 119 294
e 119 128
e 120 343
e 120 787
e 120 137
e 120 995
e 120 775
e 120 724
e 120 327
e 120 468
e 122 315
e 122 251
e 122 521
e 122 788
e 122 365
e 122 173
e 123 266
e 123 261
e 126 913
e 126 998
e 127 440
e 127 685
e 127 189
e 127 803
e 127 750
e 127 655
e 128 676
e 128 487
e 128 467
e 128 168
e 128 569
e 128 211
e 129 468
e 129 242
e 129 659
e 129 508
e 129 739
e 129 247
e 130 796
e 130 557
e 130 513
e 130 941
e 131 636
e 131 138
e 131 150
e 132 485
e 132 505
e 133 878
e 133 439
e 133 634
e 135 527
e 135 526
e 135 826
e 135 801
e 136 945
e 136 674
e 136 204
e 136 720
e 137 555
e 137 606
e 138 746
e 138 258
e 138 625
e 139 607
e 139 183
e 139 588
e 139 895
e 139 721
e 140 559
e 140 376
e 140 955
e 140 991
e 140 440
e 141 179
e 141 151
e 141 660
e 141 862
e 141 616
e 143 683
e 143 346
e 143 618
e 143 959
e 146 619
e 146 577
e 146 724
e 147 771
e 147 612
e 147 794
e 147 998
e 147 199
e 147 454
e 147 355
e 147 838
e 148 249
e 148 234
e 148 274
e 148 487
e 148 427
e 148 652
e 150 856
e 150 524
e 150 626
e 150 937
e 150 382
e 150 381
e 151 728
e 151 719
e 152 202
e 152 236
e 152 245
e 153 971
e 153 421
e 156 715
e 156 330
e 156 175
e 156 704
e 156 767
e 157 301
e 157 893
e 158 894
e 158 483
e 158 514
e 159 411
e 159 785
e 159 910
e 159 473
e 159 660
e 161 966
e 161 272
e 161 988
e 162 878
e 162 685
e 162 261
e 163 820
e 163 191
e 163 657
e 163 656
e 164 974
e 164 468
e 164 939
e 164 747
e 164 436
e 164 844
e 165 638
e 165 514
e 165 633
e 165 973
e 168 612
e 168 944
e 169 929
e 169 818
e 169 316
e 171 332
e 171 183
e 171 525
e 171 346
e 172 605
e 172 775
e 172 221
e 172 493
e 172 716
e 172 723
e 173 418
e 173 827
e 173 384
e 173 682
e 173 612
e 174 782
e 174 956
e 174 462
e 174 421
e 174 948
e 175 664
e 175 247
e 176 800
e 176 503
e 176 695
e 177 639
e 177 799
e 177 281
e 177 209
e 178 695
e 178 431
e 178 676
e 178 247
e 178 973
e 178 918
e 178 443
e 178 579
e 178 373
e 179 681
e 179 657
e 179 754
e 179 782
e 179 335
e 180 828
e 180 715
e 180 204
e 181 707
e 181 628
e 181 787
e 181 646
e 181 588
e 181 773
e 183 457
e 183 326
e 183 295
e 183 373
e 183 731
e 186 399
e 186 408
e 186 908
e 186 549
e 186 637
e 186 956
e 186 583
e 187 329
e 187 374
e 188 726
e 188 411
e 188 580
e 188 539
e 188 235
e 188 872
e 189 562
e 189 754
e 189 327
e 189 448
e 189 331
e 189 335
e 189 959
e 191 450
e 191 218
e 191 360
e 191 482
e 191 494
e 191 751
e 191 472
e 192 276
e 192 772
e 192 244
e 192 400
e 192 871
e 193 633
e 193 411
e 193 234
e 193 995
e 195 502
e 195 672
e 195 575
e 197 711
e 197 990
e 197 960
e 197 220
e 198 842
e 198 923
e 198 773
e 199 720
e 199 557
e 199 878
e 200 777
e 200 493
e 202 331
e 202 357
e 202 367
e 203 283
e 203 914
e 203 893
e 204 680
e 206 970
e 206 732
e 207 957
e 207 829
e 207 565
e 207 474
e 208 346
e 208 901
e 208 913
e 208 477
e 208 481
e 208 563
e 208 369
e 209 408
e 209 889
e 210 994
e 210 405
e 210 434
e 210 233
e 211 269
e 211 805
e 211 667
e 211 470
e 211 758
e 211 423
e 212 957
e 212 222
e 212 971
e 216 920
e 216 869
e 216 583
e 216 654
e 217 306
e 217 371
e 217 624
e 217 664
e 217 909
e 217 572
e 218 644
e 218 344
e 218 703
e 218 236
e 219 892
e 219 718
e 219 470
e 219 837
e 220 376
e 220 452
e 220 648
e 221 691
e 222 409
e 222 448
e 222 643
e 222 654
e 224 755
e 224 951
e 224 639
e 225 827
e 225 598
e 225 703
e 225 609
e 226 389
e 226 484
e 226 528
e 226 991
e 227 431
e 227 361
e 227 987
e 227 886
e 227 835
e 228 686
e 228 702
e 228 631
e 228 777
e 233 842
e 233 355
e 234 892
e 234 655
e 235 996
e 235 725
e 235 481
e 235 663
e 236 503
e 240 320
e 240 471
e 240 476
e 240 246
e 241 248
e 241 357
e 242 466
e 242 506
e 242 988
e 242 579
e 242 357
e 242 492
e 242 659
e 243 731
e 244 990
e 244 897
e 245 640
e 246 832
e 246 376
e 247 329
e 247 475
e 248 628
e 248 583
e 248 691
e 248 646
e 248 636
e 248 801
e 249 522
e 249 285
e 251 595
e 251 425
e 252 637
e 252 701
e 252 800
e 255 939
e 255 983
e 255 350
e 255 677
e 256 892
e 256 346
e 256 533
e 258 469
e 260 572
e 260 435
e 260 490
e 260 873
e 261 506
e 261 862
e 261 318
e 262 503
e 262 564
e 262 765
e 262 769
e 262 744
e 264 808
e 264 621
e 264 839
e 265 418
e 265 504
e 265 451
e 266 694
e 266 937
e 266 718
e 266 986
e 266 783
e 266 929
e 266 461
e 266 773
e 268 569
e 268 291
e 268 789
e 268 695
e 269 532
e 269 660
e 269 889
e 269 915
e 269 635
e 271 374
e 271 389
e 271 685
e 272 661
e 272 653
e 274 861
e 274 770
e 275 837
e 275 462
e 275 901
e 275 404
e 276 844
e 276 974
e 279 754
e 279 549
e 280 365
e 280 799
e 280 614
e 281 410
e 281 843
e 281 492
e 283 598
e 283 484
e 283 308
e 283 627
e 285 631
e 285 512
e 285 289
e 285 600
e 289 901
e 289 419
e 289 557
e 289 867
e 289 617
e 289 560
e 290 891
e 290 379
e 291 521
e 291 495
e 291 719
e 291 751
e 293 867
e 293 378
e 293 983
e 294 926
e 294 479
e 294 683
e 294 815
e 295 714
e 295 401
e 295 783
e 295 905
e 296 835
e 296 410
e 296 505
e 298 609
e 298 417
e 298 350
e 298 436
e 299 754
e 299 322
e 299 350
e 300 989
e 300 748
e 300 875
e 300 958
e 301 965
e 301 613
e 303 699
e 303 597
e 303 463
e 303 629
e 303 882
e 304 574
e 304 833
e 304 685
e 304 731
e 304 949
e 306 532
e 306 679
e 306 891
e 306 500
e 308 567
e 308 563
e 308 437
e 308 620
e 314 747
e 314 502
e 314 317
e 314 437
e 314 321
e 314 751
e 314 798
e 314 923
e 314 842
e 315 560
e 315 331
e 316 472
e 316 691
e 316 850
e 316 420
e 316 986
e 316 549
e 317 449
e 317 651
e 317 729
e 317 607
e 318 823
e 318 713
e 318 747
e 319 618
e 319 674
e 319 409
e 319 861
e 320 834
e 321 677
e 321 477
e 321 512
e 321 348
e 321 949
e 322 549
e 322 379
e 322 718
e 322 720
e 325 537
e 325 623
e 325 785
e 326 869
e 326 766
e 327 931
e 327 760
e 329 840
e 329 581
e 329 948
e 330 943
e 330 468
e 330 396
e 330 857
e 331 704
e 331 729
e 331 871
e 331 862
e 332 462
e 332 764
e 333 492
e 333 386
e 333 535
e 333 691
e 335 443
e 335 337
e 337 557
e 337 346
e 337 751
e 337 380
e 339 998
e 339 984
e 339 924
e 340 674
e 340 566
e 341 730
e 341 523
e 343 886
e 343 566
e 344 869
e 344 588
e 346 377
e 347 588
e 347 362
e 348 574
e 348 808
e 348 528
e 350 566
e 350 586
e 350 510
e 350 528
e 350 782
e 351 639
e 351 966
e 351 436
e 351 379
e 351 556
e 351 897
e 353 502
e 353 923
e 353 371
e 355 481
e 355 726
e 355 827
e 355 651
e 357 627
e 358 627
e 358 758
e 360 520
e 360 927
e 360 639
e 360 833
e 360 869
e 361 369
e 361 504
e 361 475
e 361 620
e 361 379
e 361 723
e 361 928
e 362 908
e 362 718
e 362 962
e 363 950
e 363 965
e 363 378
e 365 652
e 365 383
e 366 375
e 366 642
e 366 584
e 366 839
e 367 941
e 367 983
e 368 737
e 368 769
e 369 756
e 371 613
e 371 615
e 371 944
e 373 539
e 374 558
e 374 949
e 374 916
e 374 670
e 374 486
e 374 967
e 374 502
e 374 985
e 375 415
e 375 886
e 375 408
e 376 531
e 376 843
e 376 973
e 377 778
e 377 943
e 377 457
e 377 955
e 378 741
e 380 736
e 380 555
e 381 854
e 381 417
e 381 877
e 381 985
e 382 982
e 382 565
e 383 916
e 383 842
e 383 971
e 384 691
e 384 755
e 384 738
e 386 995
e 386 410
e 386 613
e 387 877
e 387 826
e 387 425
e 387 518
e 387 633
e 387 915
e 387 779
e 387 763
e 389 595
e 390 857
e 390 970
e 390 510
e 391 612
e 391 597
e 391 967
e 391 970
e 391 701
e 392 795
e 392 867
e 392 498
e 395 842
e 395 772
e 395 564
e 395 778
e 395 903
e 395 861
e 395 717
e 396 821
e 396 884
e 396 474
e 399 798
e 399 626
e 399 575
e 399 531
e 399 714
e 400 731
e 400 878
e 400 514
e 400 959
e 400 506
e 401 617
e 401 901
e 402 926
e 402 635
e 404 783
e 404 746
e 405 454
e 406 816
e 406 770
e 406 943
e 407 713
e 407 929
e 407 479
e 408 970
e 408 435
e 408 699
e 408 880
e 408 972
e 408 417
e 409 600
e 409 840
e 409 747
e 409 684
e 409 496
e 410 717
e 410 956
e 411 753
e 411 671
e 414 664
e 414 635
e 414 689
e 415 896
e 415 715
e 417 771
e 418 607
e 418 617
e 419 839
e 419 915
e 420 819
e 420 821
e 420 808
e 421 459
e 421 977
e 421 426
e 422 606
e 422 667
e 422 561
e 422 771
e 423 777
e 423 669
e 425 903
e 425 585
e 426 449
e 426 543
e 427 733
e 427 979
e 431 830
e 431 895
e 432 820
e 432 454
e 432 715
e 434 731
e 434 725
e 435 704
e 435 522
e 435 765
e 436 733
e 436 882
e 437 439
e 437 527
e 439 639
e 439 533
e 440 483
e 441 514
e 443 528
e 443 633
e 443 736
e 443 772
e 447 543
e 447 652
e 447 908
e 448 824
e 448 819
e 449 869
e 449 581
e 450 728
e 450 987
e 452 827
e 452 927
e 452 799
e 452 770
e 454 937
e 454 687
e 457 531
e 457 888
e 457 494
e 458 926
e 458 941
e 458 677
e 458 748
e 459 823
e 459 507
e 461 572
e 461 719
e 461 954
e 461 928
e 462 674
e 462 771
e 462 616
e 463 808
e 463 785
e 463 587
e 463 779
e 464 993
e 464 818
e 465 690
e 465 566
e 465 875
e 465 753
e 465 659
e 466 481
e 466 642
e 466 871
e 467 672
e 467 766
e 468 721
e 469 823
e 469 930
e 469 937
e 470 496
e 470 750
e 470 602
e 470 564
e 471 699
e 471 856
e 471 987
e 472 626
e 472 715
e 472 645
e 473 995
e 473 875
e 473 641
e 473 981
e 473 585
e 474 622
e 475 811
e 476 830
e 476 492
e 477 989
e 477 722
e 477 702
e 477 948
e 479 905
e 479 643
e 479 717
e 479 671
e 481 746
e 481 623
e 481 867
e 482 682
e 482 614
e 483 928
e 483 842
e 483 576
e 483 566
e 483 616
e 484 789
e 484 655
e 485 998
e 485 531
e 485 984
e 485 623
e 485 627
e 485 828
e 486 980
e 486 513
e 486 846
e 487 992
e 487 954
e 489 497
e 489 857
e 489 910
e 490 597
e 490 951
e 490 753
e 492 977
e 494 516
e 494 967
e 495 621
e 495 652
e 496 800
e 496 889
e 496 573
e 496 702
e 496 993
e 497 955
e 497 999
e 497 656
e 498 648
e 500 764
e 500 533
e 500 563
e 502 991
e 502 990
e 502 770
e 503 651
e 503 947
e 503 598
e 504 610
e 504 726
e 504 695
e 505 636
e 505 821
e 505 696
e 505 600
e 506 679
e 506 867
e 507 877
e 507 838
e 508 962
e 508 758
e 510 962
e 510 630
e 510 526
e 512 877
e 513 609
e 513 862
e 513 521
e 513 689
e 514 653
e 516 819
e 516 622
e 517 687
e 517 996
e 517 726
e 517 820
e 517 896
e 517 526
e 517 934
e 518 803
e 518 846
e 518 720
e 520 533
e 520 748
e 521 952
e 521 761
e 521 972
e 522 864
e 523 577
e 523 864
e 523 711
e 524 610
e 524 597
e 524 769
e 524 975
e 524 677
e 525 901
e 525 946
e 527 557
e 527 982
e 527 687
e 528 862
e 528 533
e 528 878
e 531 830
e 531 964
e 532 877
e 532 613
e 533 871
e 533 916
e 535 961
e 537 961
e 537 913
e 538 905
e 538 580
e 538 566
e 539 968
e 540 783
e 540 948
e 540 585
e 540 693
e 543 577
e 543 662
e 545 690
e 545 587
e 545 702
e 545 828
e 549 661
e 549 934
e 553 987
e 553 726
e 553 894
e 555 711
e 556 977
e 557 772
e 557 611
e 557 822
e 558 977
e 558 738
e 558 895
e 558 814
e 559 837
e 559 663
e 559 976
e 560 957
e 560 701
e 560 572
e 561 578
e 562 660
e 562 924
e 563 655
e 563 588
e 563 818
e 563 676
e 564 579
e 567 918
e 567 747
e 569 634
e 571 753
e 571 759
e 571 633
e 573 992
e 573 674
e 574 636
e 574 800
e 574 654
e 575 622
e 576 814
e 576 930
e 577 733
e 577 905
e 577 960
e 577 640
e 578 750
e 579 909
e 579 665
e 580 958
e 581 874
e 584 694
e 584 832
e 585 641
e 586 978
e 586 612
e 586 800
e 586 948
e 587 620
e 588 926
e 588 750
e 588 835
e 595 677
e 595 944
e 597 871
e 598 962
e 599 748
e 599 739
e 600 616
e 602 663
e 605 927
e 605 629
e 606 958
e 606 682
e 607 995
e 608 843
e 608 723
e 608 620
e 609 644
e 610 854
e 611 929
e 612 756
e 612 914
e 612 982
e 613 987
e 614 716
e 615 928
e 615 874
e 616 704
e 616 639
e 616 829
e 616 792
e 617 621
e 617 769
e 617 636
e 619 703
e 619 715
e 620 640
e 621 704
e 622 984
e 623 897
e 623 840
e 623 642
e 623 814
e 624 696
e 624 747
e 625 792
e 625 671
e 626 685
e 626 722
e 627 992
e 627 653
e 628 882
e 628 701
e 628 973
e 629 834
e 630 805
e 631 811
e 633 886
e 633 870
e 635 737
e 636 698
e 636 687
e 636 711
e 638 677
e 638 716
e 638 802
e 638 854
e 639 850
e 639 969
e 641 710
e 641 747
e 641 758
e 642 826
e 642 909
e 642 698
e 643 711
e 644 795
e 644 770
e 645 959
e 646 970
e 646 769
e 647 892
e 647 661
e 647 804
e 647 895
e 647 694
e 648 915
e 649 680
e 649 748
e 651 909
e 652 765
e 652 898
e 655 910
e 655 802
e 656 905
e 656 869
e 657 981
e 657 896
e 659 699
e 659 836
e 661 689
e 661 822
e 662 730
e 662 816
e 663 856
e 664 811
e 664 773
e 665 913
e 665 939
e 667 993
e 667 837
e 669 689
e 669 705
e 670 717
e 670 920
e 671 760
e 672 710
e 672 766
e 676 893
e 676 825
e 677 773
e 677 969
e 677 954
e 679 965
e 679 976
e 680 731
e 680 828
e 681 984
e 681 789
e 683 804
e 683 954
e 683 698
e 684 931
e 684 835
e 684 731
e 684 767
e 685 954
e 686 821
e 686 830
e 686 880
e 686 964
e 686 741
e 687 729
e 687 893
e 687 691
e 689 819
e 690 897
e 691 704
e 691 788
e 691 798
e 693 899
e 693 888
e 694 973
e 694 796
e 694 705
e 699 825
e 702 979
e 702 792
e 703 735
e 703 748
e 704 872
e 704 894
e 705 996
e 706 905
e 706 971
e 707 903
e 707 756
e 707 998
e 707 912
e 707 767
e 710 999
e 710 993
e 711 737
e 711 869
e 713 796
e 713 834
e 713 794
e 713 841
e 714 744
e 714 838
e 714 975
e 715 930
e 716 719
e 716 862
e 716 841
e 716 799
e 717 895
e 718 969
e 721 833
e 723 758
e 723 801
e 723 824
e 724 846
e 725 968
e 725 857
e 726 943
e 728 746
e 729 978
e 730 816
e 731 739
e 732 794
e 732 952
e 735 818
e 738 982
e 738 983
e 738 785
e 738 837
e 739 981
e 741 912
e 741 832
e 746 939
e 751 916
e 755 819
e 758 955
e 758 818
e 759 943
e 759 913
e 759 778
e 760 886
e 761 878
e 763 836
e 763 796
e 764 873
e 766 899
e 766 989
e 766 943
e 767 891
e 767 959
e 767 835
e 769 880
e 772 950
e 772 929
e 772 870
e 773 788
e 777 929
e 777 822
e 777 870
e 777 899
e 778 912
e 779 953
e 779 886
e 779 982
e 787 799
e 788 825
e 789 874
e 790 914
e 790 889
e 790 923
e 794 991
e 795 857
e 800 884
e 802 945
e 803 968
e 803 838
e 811 947
e 811 987
e 814 816
e 814 953
e 815 971
e 816 945
e 819 846
e 820 950
e 822 826
e 823 905
e 824 989
e 825 970
e 825 918
e 829 877
e 830 990
e 833 882
e 833 951
e 833 972
e 833 898
e 837 842
e 838 972
e 838 898
e 838 981
e 839 947
e 840 864
e 840 884
e 842 915
e 843 947
e 846 905
e 854 913
e 854 943
e 856 941
e 856 913
e 862 980
e 867 979
e 872 941
e 873 946
e 877 984
e 880 998
e 882 892
e 884 931
e 884 912
e 886 944
e 886 908
e 888 986
e 889 905
e 891 966
e 896 980
e 897 975
e 898 946
e 903 995
e 905 980
e 912 920
e 915 933
e 924 984
e 934 970
e 941 973
e 941 984
e 945 989
e 948 993
e 949 979
e 950 969
e 955 958
e 959 992
e 964 993
e 976 988
e 984 994
